Optimal - objective value 90.00000000
      0 X4                    90                       1
      1 X0                     0                       0
      2 X1                     3                       0
      3 X2                     1                       0
      4 X3                     0                       0
      5 X6                    10                       0
      6 X7                     6                       0
      7 X8                   750                       0
      8 X5                    13                       0
